/*********************************************
 * OPL 22.1.1.0 Data
 * Author: mis
 * Creation Date: 17 mai 2024 at 16:54:02
 *********************************************/

 
NJobs = 4;
NMachines = 4;
 

 
c =[[5 2 7 4]
    [10 3 6 8]
    [5 4 4 6]
    [2 4 7 9]
];